Set parameter Username
Academic license - for non-commercial use only - expires 2022-10-14
Solving optimization problem
Gurobi Optimizer version 9.5.0 build v9.5.0rc5 (linux64)
Thread count: 28 physical cores, 56 logical processors, using up to 28 threads
Optimize a model with 96262 rows, 10066 columns and 199125 nonzeros
Model fingerprint: 0xc68a8bb4
Model has 24180 general constraints
Variable types: 0 continuous, 10066 integer (9150 binary)
Coefficient statistics:
  Matrix range     [1e+00, 1e+00]
  Objective range  [1e+00, 1e+00]
  Bounds range     [1e+00, 1e+00]
  RHS range        [1e+00, 9e+00]
  GenCon rhs range [1e+00, 9e+00]
  GenCon coe range [1e+00, 1e+00]
Presolve removed 12479 rows and 198 columns
Presolve time: 0.04s

Explored 0 nodes (0 simplex iterations) in 0.05 seconds (0.04 work units)
Thread count was 1 (of 56 available processors)

Solution count 0

Model is infeasible
Best objective -, best bound -, gap -
Sad
